JulietBench/Juliet_Based_Patch_Bench/FFmpeg/CWE-189-Numeric-Errors/CVE_2015_6819_84afc6b70d24fc0bf686e43138c96cf60a9445fe/Resultff_mjpeg_decode_frame_SnippetEQ.smt2
; benchmark generated from python API
(set-info :status unknown)
(declare-fun R () (_ BitVec 64))
(declare-fun rsi () (_ BitVec 64))
(declare-fun rdi () (_ BitVec 64))
(assert
 (let (($x597 (= (_ bv0 64) R)))
 (let ((?x8 ((_ extract 31 0) rsi)))
 (let (($x12 (= (_ bv0 32) ?x8)))
 (let ((?x6 ((_ extract 31 0) rdi)))
 (let ((?x228 (bvadd (_ bv4294967295 32) ?x6)))
 (let ((?x242 ((_ extract 31 31) ?x228)))
 (let ((?x3601 (concat (concat (concat (concat (concat ?x242 ?x242) ?x242) ?x242) ?x242) ?x242)))
 (let ((?x338 (concat (concat (concat (concat (concat ?x3601 ?x242) ?x242) ?x242) ?x242) ?x242)))
 (let ((?x3555 (concat (concat (concat (concat (concat ?x338 ?x242) ?x242) ?x242) ?x242) ?x242)))
 (let ((?x3588 (concat (concat (concat (concat (concat ?x3555 ?x242) ?x242) ?x242) ?x242) ?x242)))
 (let ((?x302 (concat (concat (concat (concat (concat ?x3588 ?x242) ?x242) ?x242) ?x242) ?x242)))
 (let ((?x80 (concat (concat (concat (concat (concat ?x302 ?x242) ?x242) ?x242) ?x242) ?x242)))
 (let ((?x112 (concat (concat ?x80 ?x242) ?x228)))
 (let ((?x143 (bvashr ?x112 (_ bv31 64))))
 (let ((?x115 ((_ extract 31 0) ?x143)))
 (let ((?x168 (bvmul (_ bv1431655766 64) ?x112)))
 (let ((?x105 ((_ extract 63 32) ?x168)))
 (let (($x10153 (= ?x105 ?x115)))
 (let ((?x9610 (bvmul (_ bv4294967295 32) ?x115)))
 (let ((?x9608 (bvadd ?x105 ?x9610)))
 (let ((?x9611 ((_ extract 31 31) ?x9608)))
 (let (($x9606 (= (_ bv0 1) ?x9611)))
 (let ((?x34 ((_ sign_extend 32) ?x6)))
 (let ((?x37 (bvadd ?x34 (_ bv18446744073709551615 64))))
 (let (($x4766 (bvule ?x37 (_ bv18446744073709551615 64))))
 (let (($x55 (= (_ bv18446744073709551615 64) ?x37)))
 (let (($x3246 (bvsge (_ bv1 32) ?x6)))
 (let (($x3438 (and $x3246 $x55 $x4766 $x9606 $x10153 $x12 $x597)))
 (let (($x8360 (not $x12)))
 (let ((?x1930 (bvadd (_ bv4294967233 32) ?x115)))
 (let (($x1132 (= ?x105 ?x1930)))
 (let ((?x3563 (bvshl ?x34 (_ bv1 64))))
 (let ((?x1743 (bvadd ?x3563 (_ bv18446744073709551614 64))))
 (let (($x10498 (bvule ?x1743 (_ bv18446744073709551238 64))))
 (let (($x2039 (= (_ bv18446744073709551238 64) ?x1743)))
 (let (($x6052 (and $x3246 $x2039 $x10498 $x1132 $x8360 $x597)))
 (let (($x2792 (or $x6052 $x3438)))
 (let (($x260 (= (_ bv0 32) ?x6)))
 (let (($x690 (and $x260 $x12 $x597)))
 (let (($x8795 (= (_ bv4294967258 32) ?x6)))
 (let (($x7409 (bvule ?x1743 (_ bv18446744073709551538 64))))
 (let (($x293 (= (_ bv18446744073709551538 64) ?x1743)))
 (let (($x147 (and $x293 $x7409 $x8795 $x8360 $x597)))
 (let (($x9339 (or $x147 $x690)))
 (and $x9339 $x2792))))))))))))))))))))))))))))))))))))))))))))))
(check-sat)
